#######################
Slurm job id: 17497813_326
Running on machine: p31
Running cmd: /nfs/shared/static-builds/gurobi1202 SOFTMEMLIMIT=125 MIPFocus=1 Presolve=2 TimeLimit=300 seed=5 /nfs/models/miplib2010/k16x240.mps.bz2
#######################
Set parameter TimeLimit to value 300
Set parameter SoftMemLimit to value 125
Set parameter MIPFocus to value 1
Set parameter LogFile to value 1202-MIPFocus1-Presolve2-TimeLimit300-k16x240-5.log
Set parameter Presolve to value 2
Set parameter Seed to value 5
Using license file /opt/gurobi/gurobi.lic

Gurobi Optimizer version 12.0.2 build v12.0.2rc0 (linux64 - "Ubuntu 22.04.4 LTS")
Copyright (c) 2025, Gurobi Optimization, LLC

Read MPS format model from file /nfs/models/miplib2010/k16x240.mps.bz2
Reading time = 0.00 seconds
k16x240: 256 rows, 480 columns, 960 nonzeros

Using Gurobi shared library /nfs/shared/static-builds/gurobi1202

CPU model: Intel(R) Xeon(R) E-2388G CPU @ 3.20GHz, instruction set [SSE2|AVX|AVX2|AVX512]
Thread count: 8 physical cores, 16 logical processors, using up to 16 threads

Non-default parameters:
TimeLimit  300
SoftMemLimit  125
MIPFocus  1
Presolve  2
Seed  5

Optimize a model with 256 rows, 480 columns and 960 nonzeros
Model fingerprint: 0x4e80885f
Variable types: 240 continuous, 240 integer (240 binary)
Coefficient statistics:
  Matrix range     [1e+00, 1e+03]
  Objective range  [1e+00, 1e+03]
  Bounds range     [1e+00, 1e+03]
  RHS range        [4e+00, 4e+02]
Found heuristic solution: objective 27987.000000
Presolve time: 0.00s
Presolved: 256 rows, 480 columns, 960 nonzeros
Variable types: 240 continuous, 240 integer (240 binary)
Root relaxation presolve removed 241 rows and 240 columns
Root relaxation presolved: 15 rows, 240 columns, 450 nonzeros


Root relaxation: objective 2.769838e+03, 16 iterations, 0.00 seconds (0.00 work units)

    Nodes    |    Current Node    |     Objective Bounds      |     Work
 Expl Unexpl |  Obj  Depth IntInf | Incumbent    BestBd   Gap | It/Node Time

     0     0 2769.83800    0   14 27987.0000 2769.83800  90.1%     -    0s
H    0     0                    11359.000000 2769.83800  75.6%     -    0s
H    0     0                    11262.000000 2769.83800  75.4%     -    0s
     0     0 8083.82021    0   25 11262.0000 8083.82021  28.2%     -    0s
H    0     0                    11241.000000 8083.82021  28.1%     -    0s
H    0     0                    11222.000000 8083.82021  28.0%     -    0s
H    0     0                    11210.000000 8083.82021  27.9%     -    0s
H    0     0                    11170.000000 8083.82021  27.6%     -    0s
H    0     0                    11094.000000 8083.82021  27.1%     -    0s
H    0     0                    11044.000000 8084.69631  26.8%     -    0s
H    0     0                    10806.000000 8084.69631  25.2%     -    0s
     0     0 8084.69631    0   26 10806.0000 8084.69631  25.2%     -    0s
     0     0 8528.16906    0   24 10806.0000 8528.16906  21.1%     -    0s
     0     0 8539.52379    0   32 10806.0000 8539.52379  21.0%     -    0s
     0     0 8548.03675    0   29 10806.0000 8548.03675  20.9%     -    0s
     0     0 8707.77726    0   27 10806.0000 8707.77726  19.4%     -    0s
     0     0 8761.73709    0   35 10806.0000 8761.73709  18.9%     -    0s
     0     0 8768.61973    0   31 10806.0000 8768.61973  18.9%     -    0s
     0     0 8789.11426    0   40 10806.0000 8789.11426  18.7%     -    0s
     0     0 8791.63997    0   39 10806.0000 8791.63997  18.6%     -    0s
     0     0 8803.74199    0   37 10806.0000 8803.74199  18.5%     -    0s
     0     0 8804.27751    0   35 10806.0000 8804.27751  18.5%     -    0s
     0     0 8883.93574    0   30 10806.0000 8883.93574  17.8%     -    0s
     0     0 8895.98597    0   31 10806.0000 8895.98597  17.7%     -    0s
     0     0 8900.19110    0   36 10806.0000 8900.19110  17.6%     -    0s
H    0     0                    10750.000000 8900.22914  17.2%     -    0s
     0     0 8900.22914    0   35 10750.0000 8900.22914  17.2%     -    0s
     0     0 9004.50614    0   36 10750.0000 9004.50614  16.2%     -    0s
H    0     0                    10748.000000 9004.72418  16.2%     -    0s
     0     2 9004.72418    0   36 10748.0000 9004.72418  16.2%     -    0s
H  157   139                    10674.000000 9169.93921  14.1%  29.2    0s
 26981 12698     cutoff   39      10674.0000 9865.68458  7.57%  17.9    5s
 79385 32520 10430.0028   40   10 10674.0000 10014.1379  6.18%  17.4   10s
 133207 47597 10262.8124   34   14 10674.0000 10086.2053  5.51%  17.0   15s
 185047 59973 10455.3033   38   11 10674.0000 10136.4794  5.04%  16.6   20s
 236177 69259     cutoff   38      10674.0000 10176.5616  4.66%  16.6   25s
 290744 76952     cutoff   48      10674.0000 10213.7466  4.31%  16.5   30s
 345129 82863     cutoff   35      10674.0000 10245.6164  4.01%  16.3   35s
 399804 86332     cutoff   40      10674.0000 10275.7759  3.73%  16.1   40s
 457604 87354     cutoff   31      10674.0000 10306.3760  3.44%  15.9   45s
 517384 85985 10644.4658   37    9 10674.0000 10336.6657  3.16%  15.7   50s
 572860 81845     cutoff   31      10674.0000 10365.5901  2.89%  15.6   55s
 624126 74877 10442.4156   44   18 10674.0000 10394.2528  2.62%  15.7   60s
 673822 64560     cutoff   34      10674.0000 10425.3392  2.33%  15.6   65s
 728250 46278     cutoff   38      10674.0000 10468.1830  1.93%  15.4   70s
 792806  9939     cutoff   47      10674.0000 10568.4017  0.99%  15.1   75s

Cutting planes:
  Gomory: 5
  Lift-and-project: 17
  Cover: 9
  Implied bound: 2
  Dual implied bound: 52
  MIR: 133
  Flow cover: 269
  Flow path: 39
  Network: 66
  Relax-and-lift: 5

Explored 806010 nodes (12028672 simplex iterations) in 75.65 seconds (82.48 work units)
Thread count was 16 (of 16 available processors)

Solution count 10: 10674 10748 10750 ... 11241

Optimal solution found (tolerance 1.00e-04)
Best objective 1.067400000000e+04, best bound 1.067400000000e+04, gap 0.0000%
